41 371
2 3 4 8 9 10 11 14 17 21 23 25 30 31 32 33 37 40
5 6 7 8 9 14 18 20 23 26 28 29 31 34 35 37 39
0 4 6 8 10 11 13 14 16 17 18 19 24 26 27 29 34 38
0 4 5 6 9 10 14 20 21 22 24 26 28 29 30 32 34 37
0 2 3 8 9 15 19 20 28 29 30 32 34 37 38 39
1 3 11 13 14 16 17 18 19 21 24 31 36 37 39 40
1 2 3 13 14 16 21 22 23 25 26 27 29 31 32 36 40
1 9 11 12 14 17 22 25 26 27 28 29 30 32 33 34 35 36 38 40
0 1 2 4 9 10 11 15 16 18 19 20 21 22 23 25 26 27 29 32 33 34 36 37 40
0 1 3 4 7 8 10 11 12 13 14 16 17 19 20 23 24 28 32 37 38 40
0 2 3 8 9 13 15 16 17 19 20 24 26 28 31 32 35 36 38 39
0 2 5 7 8 9 12 14 16 17 18 22 25 31 32 33 34 36 37 40
7 9 11 17 18 20 21 24 29 33 34 35 36 40
2 5 6 9 10 15 17 22 24 27 28 30 31 32 33 36 39
0 1 2 3 5 6 7 9 11 20 21 22 24 25 26 27 28 29 32 34 40
4 8 10 13 16 17 22 23 26 28 30 31 32 33 34 36 37 40
2 5 6 8 9 10 11 15 18 19 20 21 26 33
0 2 5 7 9 10 11 12 13 15 19 20 26 30 31 33 35 37
1 2 5 8 11 12 16 19 20 21 22 23 30 31 33 34 36 39
2 4 5 8 9 10 16 17 18 25 27 28 31 34 40
1 3 4 8 9 10 12 14 16 17 18 21 24 26 28 32 33 36 38 39
0 3 5 6 8 12 14 16 18 20 22 27 28 31 34 35 36 38
3 6 7 8 11 13 14 15 18 21 26 27 28 29 30 33 34 35 38
0 1 6 8 9 15 18 24 25 26 29 30 31 32 35 36 37 38
2 3 5 9 10 12 13 14 20 23 25 26 27 28 30 31 37 38 40
0 6 7 8 11 14 19 23 24 27 33 34 35 36 39 40
1 2 3 6 7 8 10 14 15 16 17 20 22 23 24 28 32 34 35 39 40
2 6 7 8 13 14 19 21 22 24 25 29 33 36 37 39 40
1 3 4 7 9 10 13 14 15 19 20 21 22 24 26 34 38
1 2 3 4 6 7 8 12 14 22 23 27 31 36 40
0 3 4 7 13 15 17 18 22 23 24 31 32 33 34 35 36 39 40
0 1 5 6 10 11 13 15 17 18 19 21 23 24 29 30 36 37 38
0 3 4 6 7 8 9 10 11 13 14 15 20 23 26 30 33 34 35 36 39
0 7 8 11 12 13 15 16 17 18 20 22 25 27 30 32 34 35 36 39
1 2 3 4 7 8 11 12 14 15 18 19 21 22 25 26 28 30 32 33 35 36 38
1 7 10 12 17 21 22 23 25 26 30 32 33 34 40
5 6 7 8 10 11 12 13 15 18 20 21 23 25 27 29 30 31 32 33 34
0 1 3 4 5 8 9 11 15 17 23 24 27 31 39
2 4 7 9 10 20 21 22 23 24 28 31 34 40
1 4 5 10 13 18 20 25 26 27 30 32 33 37
0 5 6 7 8 9 11 12 14 15 19 24 25 26 27 29 30 35 38
